NAME 
OBJSENSE MAX
ROWS
 N  OBJ
 L  packing[0]
 L  packing[1]
 L  packing[2]
 L  packing[3]
 L  packing[4]
 L  packing[5]
 L  packing[6]
 L  packing[7]
 L  packing[8]
 L  packing[9]
 L  packing[10]
 L  packing[11]
 L  packing[12]
 L  packing[13]
 L  packing[14]
 L  packing[15]
 L  packing[16]
 L  packing[17]
 L  packing[18]
 L  packing[19]
 L  packing[20]
 L  packing[21]
 L  packing[22]
 L  packing[23]
 L  packing[24]
 L  packing[25]
 L  packing[26]
 L  packing[27]
 L  packing[28]
 L  packing[29]
 L  packing[30]
 L  packing[31]
 L  packing[32]
 L  packing[33]
 L  packing[34]
 L  packing[35]
 L  packing[36]
 L  packing[37]
 L  packing[38]
 L  packing[39]
 L  packing[40]
 L  packing[41]
 L  packing[42]
 L  packing[43]
 L  packing[44]
 L  packing[45]
 L  packing[46]
 L  packing[47]
 L  packing[48]
 L  packing[49]
 L  R53     
 L  R54     
 L  R55     
COLUMNS
    MARKER    'MARKER'                 'INTORG'
    x[1]      OBJ       94
    x[1]      packing[0]  172
    x[1]      packing[2]  93
    x[1]      packing[3]  129
    x[1]      packing[4]  22
    x[1]      packing[6]  163
    x[1]      packing[7]  100
    x[1]      packing[8]  142
    x[1]      packing[9]  117
    x[1]      packing[10]  180
    x[1]      packing[11]  139
    x[1]      packing[13]  150
    x[1]      packing[14]  65
    x[1]      packing[16]  175
    x[1]      packing[17]  174
    x[1]      packing[18]  23
    x[1]      packing[20]  65
    x[1]      packing[21]  105
    x[1]      packing[23]  50
    x[1]      packing[24]  26
    x[1]      packing[27]  15
    x[1]      packing[28]  47
    x[1]      packing[29]  176
    x[1]      packing[31]  118
    x[1]      packing[33]  39
    x[1]      packing[34]  109
    x[1]      packing[37]  131
    x[1]      packing[38]  197
    x[1]      packing[40]  76
    x[1]      packing[42]  47
    x[1]      packing[43]  118
    x[1]      packing[44]  174
    x[1]      packing[45]  199
    x[1]      packing[46]  66
    x[1]      packing[47]  199
    x[1]      packing[48]  89
    x[1]      R54       1
    x[1]      R55       1
    x[2]      OBJ       32
    x[2]      packing[1]  139
    x[2]      packing[2]  185
    x[2]      packing[3]  86
    x[2]      packing[4]  130
    x[2]      packing[5]  144
    x[2]      packing[6]  189
    x[2]      packing[9]  151
    x[2]      packing[10]  194
    x[2]      packing[11]  113
    x[2]      packing[12]  192
    x[2]      packing[13]  48
    x[2]      packing[14]  174
    x[2]      packing[15]  55
    x[2]      packing[16]  6
    x[2]      packing[17]  92
    x[2]      packing[18]  75
    x[2]      packing[19]  112
    x[2]      packing[21]  112
    x[2]      packing[22]  199
    x[2]      packing[23]  9
    x[2]      packing[25]  69
    x[2]      packing[28]  77
    x[2]      packing[29]  159
    x[2]      packing[30]  168
    x[2]      packing[31]  52
    x[2]      packing[32]  146
    x[2]      packing[33]  183
    x[2]      packing[34]  181
    x[2]      packing[35]  7
    x[2]      packing[36]  119
    x[2]      packing[37]  109
    x[2]      packing[38]  156
    x[2]      packing[39]  99
    x[2]      packing[41]  24
    x[2]      packing[42]  99
    x[2]      packing[43]  182
    x[2]      packing[45]  12
    x[2]      packing[46]  62
    x[2]      packing[47]  179
    x[2]      packing[48]  9
    x[2]      packing[49]  148
    x[3]      OBJ       168
    x[3]      packing[0]  180
    x[3]      packing[1]  115
    x[3]      packing[2]  26
    x[3]      packing[3]  80
    x[3]      packing[4]  28
    x[3]      packing[5]  37
    x[3]      packing[6]  163
    x[3]      packing[7]  169
    x[3]      packing[8]  160
    x[3]      packing[9]  49
    x[3]      packing[10]  198
    x[3]      packing[11]  74
    x[3]      packing[12]  114
    x[3]      packing[13]  86
    x[3]      packing[14]  63
    x[3]      packing[15]  17
    x[3]      packing[16]  165
    x[3]      packing[17]  8
    x[3]      packing[18]  164
    x[3]      packing[19]  16
    x[3]      packing[20]  107
    x[3]      packing[23]  4
    x[3]      packing[24]  96
    x[3]      packing[25]  115
    x[3]      packing[26]  81
    x[3]      packing[29]  6
    x[3]      packing[30]  108
    x[3]      packing[31]  129
    x[3]      packing[32]  186
    x[3]      packing[33]  154
    x[3]      packing[34]  11
    x[3]      packing[35]  96
    x[3]      packing[36]  149
    x[3]      packing[37]  9
    x[3]      packing[39]  115
    x[3]      packing[40]  86
    x[3]      packing[42]  110
    x[3]      packing[43]  106
    x[3]      packing[44]  73
    x[3]      packing[45]  26
    x[3]      packing[46]  61
    x[3]      packing[47]  79
    x[3]      packing[48]  123
    x[3]      packing[49]  128
    x[4]      OBJ       181
    x[4]      packing[2]  132
    x[4]      packing[3]  161
    x[4]      packing[6]  21
    x[4]      packing[8]  10
    x[4]      packing[9]  52
    x[4]      packing[10]  83
    x[4]      packing[11]  17
    x[4]      packing[12]  175
    x[4]      packing[13]  72
    x[4]      packing[15]  54
    x[4]      packing[16]  136
    x[4]      packing[17]  131
    x[4]      packing[18]  185
    x[4]      packing[20]  125
    x[4]      packing[21]  161
    x[4]      packing[23]  153
    x[4]      packing[24]  169
    x[4]      packing[25]  108
    x[4]      packing[26]  114
    x[4]      packing[27]  50
    x[4]      packing[29]  7
    x[4]      packing[30]  50
    x[4]      packing[31]  177
    x[4]      packing[32]  177
    x[4]      packing[33]  108
    x[4]      packing[34]  36
    x[4]      packing[35]  180
    x[4]      packing[36]  179
    x[4]      packing[37]  68
    x[4]      packing[38]  114
    x[4]      packing[40]  191
    x[4]      packing[41]  78
    x[4]      packing[42]  7
    x[4]      packing[44]  32
    x[4]      packing[45]  103
    x[4]      packing[46]  80
    x[4]      packing[47]  20
    x[4]      packing[48]  60
    x[4]      packing[49]  99
    x[4]      R55       1
    x[5]      OBJ       97
    x[5]      packing[0]  153
    x[5]      packing[1]  21
    x[5]      packing[2]  122
    x[5]      packing[5]  29
    x[5]      packing[6]  185
    x[5]      packing[7]  106
    x[5]      packing[8]  186
    x[5]      packing[11]  23
    x[5]      packing[12]  15
    x[5]      packing[13]  107
    x[5]      packing[14]  122
    x[5]      packing[15]  177
    x[5]      packing[16]  174
    x[5]      packing[17]  48
    x[5]      packing[18]  57
    x[5]      packing[19]  126
    x[5]      packing[21]  43
    x[5]      packing[22]  11
    x[5]      packing[23]  191
    x[5]      packing[24]  136
    x[5]      packing[25]  160
    x[5]      packing[26]  143
    x[5]      packing[27]  152
    x[5]      packing[29]  188
    x[5]      packing[30]  67
    x[5]      packing[31]  126
    x[5]      packing[32]  135
    x[5]      packing[35]  174
    x[5]      packing[36]  190
    x[5]      packing[37]  46
    x[5]      packing[38]  11
    x[5]      packing[39]  57
    x[5]      packing[40]  196
    x[5]      packing[42]  183
    x[5]      packing[43]  193
    x[5]      packing[44]  184
    x[5]      packing[45]  148
    x[5]      packing[47]  44
    x[5]      packing[48]  91
    x[6]      OBJ       190
    x[6]      packing[1]  8
    x[6]      packing[4]  135
    x[6]      packing[5]  153
    x[6]      packing[7]  195
    x[6]      packing[8]  20
    x[6]      packing[9]  110
    x[6]      packing[11]  166
    x[6]      packing[12]  149
    x[6]      packing[14]  49
    x[6]      packing[15]  41
    x[6]      packing[16]  14
    x[6]      packing[17]  107
    x[6]      packing[18]  59
    x[6]      packing[19]  34
    x[6]      packing[20]  176
    x[6]      packing[21]  37
    x[6]      packing[23]  56
    x[6]      packing[25]  163
    x[6]      packing[27]  117
    x[6]      packing[28]  182
    x[6]      packing[29]  124
    x[6]      packing[30]  127
    x[6]      packing[31]  1
    x[6]      packing[33]  197
    x[6]      packing[36]  153
    x[6]      packing[37]  151
    x[6]      packing[38]  21
    x[6]      packing[40]  39
    x[6]      packing[41]  41
    x[6]      packing[42]  172
    x[6]      packing[43]  107
    x[6]      packing[44]  167
    x[6]      packing[45]  154
    x[6]      packing[46]  31
    x[6]      packing[49]  46
    x[6]      R53       1
    x[6]      R54       1
    x[6]      R55       1
    x[7]      OBJ       191
    x[7]      packing[0]  64
    x[7]      packing[1]  180
    x[7]      packing[2]  81
    x[7]      packing[3]  128
    x[7]      packing[4]  70
    x[7]      packing[6]  164
    x[7]      packing[7]  39
    x[7]      packing[8]  108
    x[7]      packing[11]  82
    x[7]      packing[12]  40
    x[7]      packing[13]  29
    x[7]      packing[15]  90
    x[7]      packing[16]  36
    x[7]      packing[17]  117
    x[7]      packing[18]  169
    x[7]      packing[19]  8
    x[7]      packing[21]  190
    x[7]      packing[22]  76
    x[7]      packing[23]  163
    x[7]      packing[24]  88
    x[7]      packing[26]  194
    x[7]      packing[28]  21
    x[7]      packing[29]  4
    x[7]      packing[30]  177
    x[7]      packing[31]  153
    x[7]      packing[32]  114
    x[7]      packing[33]  192
    x[7]      packing[35]  114
    x[7]      packing[36]  87
    x[7]      packing[37]  45
    x[7]      packing[38]  3
    x[7]      packing[39]  52
    x[7]      packing[42]  58
    x[7]      packing[43]  64
    x[7]      packing[48]  172
    x[7]      packing[49]  92
    x[8]      OBJ       195
    x[8]      packing[1]  163
    x[8]      packing[2]  131
    x[8]      packing[3]  4
    x[8]      packing[5]  45
    x[8]      packing[6]  87
    x[8]      packing[7]  185
    x[8]      packing[8]  146
    x[8]      packing[9]  189
    x[8]      packing[11]  32
    x[8]      packing[12]  161
    x[8]      packing[14]  106
    x[8]      packing[15]  57
    x[8]      packing[16]  20
    x[8]      packing[18]  42
    x[8]      packing[19]  149
    x[8]      packing[20]  126
    x[8]      packing[22]  70
    x[8]      packing[23]  22
    x[8]      packing[24]  39
    x[8]      packing[25]  52
    x[8]      packing[26]  31
    x[8]      packing[27]  48
    x[8]      packing[28]  159
    x[8]      packing[30]  82
    x[8]      packing[31]  24
    x[8]      packing[32]  124
    x[8]      packing[34]  79
    x[8]      packing[35]  68
    x[8]      packing[36]  193
    x[8]      packing[37]  129
    x[8]      packing[39]  47
    x[8]      packing[40]  60
    x[8]      packing[42]  64
    x[8]      packing[43]  117
    x[8]      packing[44]  2
    x[8]      packing[46]  172
    x[8]      packing[48]  166
    x[8]      packing[49]  163
    x[8]      R54       1
    x[9]      OBJ       145
    x[9]      packing[1]  122
    x[9]      packing[3]  76
    x[9]      packing[4]  56
    x[9]      packing[5]  124
    x[9]      packing[6]  45
    x[9]      packing[7]  156
    x[9]      packing[10]  45
    x[9]      packing[11]  12
    x[9]      packing[12]  67
    x[9]      packing[13]  32
    x[9]      packing[14]  125
    x[9]      packing[15]  96
    x[9]      packing[17]  58
    x[9]      packing[18]  196
    x[9]      packing[21]  129
    x[9]      packing[22]  165
    x[9]      packing[23]  121
    x[9]      packing[24]  134
    x[9]      packing[26]  150
    x[9]      packing[27]  49
    x[9]      packing[28]  132
    x[9]      packing[30]  178
    x[9]      packing[32]  68
    x[9]      packing[33]  17
    x[9]      packing[34]  64
    x[9]      packing[35]  132
    x[9]      packing[37]  22
    x[9]      packing[40]  42
    x[9]      packing[41]  171
    x[9]      packing[42]  121
    x[9]      packing[44]  52
    x[9]      packing[45]  143
    x[9]      packing[47]  32
    x[9]      packing[48]  9
    x[9]      packing[49]  6
    x[9]      R53       1
    x[9]      R54       1
    x[9]      R55       1
    x[10]     OBJ       95
    x[10]     packing[1]  166
    x[10]     packing[2]  43
    x[10]     packing[4]  53
    x[10]     packing[5]  24
    x[10]     packing[6]  167
    x[10]     packing[7]  78
    x[10]     packing[8]  66
    x[10]     packing[10]  23
    x[10]     packing[11]  162
    x[10]     packing[12]  86
    x[10]     packing[13]  55
    x[10]     packing[14]  91
    x[10]     packing[15]  11
    x[10]     packing[16]  172
    x[10]     packing[18]  15
    x[10]     packing[19]  7
    x[10]     packing[21]  13
    x[10]     packing[22]  146
    x[10]     packing[25]  56
    x[10]     packing[26]  10
    x[10]     packing[27]  33
    x[10]     packing[28]  113
    x[10]     packing[29]  57
    x[10]     packing[30]  74
    x[10]     packing[31]  177
    x[10]     packing[36]  48
    x[10]     packing[37]  169
    x[10]     packing[38]  35
    x[10]     packing[39]  161
    x[10]     packing[40]  89
    x[10]     packing[41]  128
    x[10]     packing[42]  79
    x[10]     packing[43]  152
    x[10]     packing[44]  102
    x[10]     packing[45]  44
    x[10]     packing[46]  97
    x[10]     packing[47]  175
    x[11]     OBJ       42
    x[11]     packing[0]  129
    x[11]     packing[2]  77
    x[11]     packing[3]  86
    x[11]     packing[5]  5
    x[11]     packing[7]  41
    x[11]     packing[9]  117
    x[11]     packing[10]  174
    x[11]     packing[11]  116
    x[11]     packing[13]  148
    x[11]     packing[14]  163
    x[11]     packing[15]  5
    x[11]     packing[16]  158
    x[11]     packing[18]  89
    x[11]     packing[20]  113
    x[11]     packing[21]  122
    x[11]     packing[22]  101
    x[11]     packing[24]  116
    x[11]     packing[25]  113
    x[11]     packing[26]  53
    x[11]     packing[27]  149
    x[11]     packing[28]  147
    x[11]     packing[29]  162
    x[11]     packing[30]  110
    x[11]     packing[31]  111
    x[11]     packing[32]  86
    x[11]     packing[33]  4
    x[11]     packing[35]  161
    x[11]     packing[36]  131
    x[11]     packing[37]  70
    x[11]     packing[39]  3
    x[11]     packing[40]  100
    x[11]     packing[42]  135
    x[11]     packing[43]  44
    x[11]     packing[46]  89
    x[11]     packing[47]  139
    x[11]     packing[49]  21
    x[12]     OBJ       171
    x[12]     packing[0]  58
    x[12]     packing[1]  37
    x[12]     packing[2]  182
    x[12]     packing[3]  177
    x[12]     packing[4]  140
    x[12]     packing[5]  63
    x[12]     packing[6]  1
    x[12]     packing[7]  2
    x[12]     packing[8]  159
    x[12]     packing[9]  3
    x[12]     packing[10]  83
    x[12]     packing[11]  139
    x[12]     packing[12]  49
    x[12]     packing[13]  10
    x[12]     packing[14]  65
    x[12]     packing[15]  165
    x[12]     packing[16]  78
    x[12]     packing[17]  142
    x[12]     packing[18]  166
    x[12]     packing[19]  6
    x[12]     packing[20]  60
    x[12]     packing[21]  106
    x[12]     packing[22]  76
    x[12]     packing[23]  103
    x[12]     packing[25]  175
    x[12]     packing[27]  138
    x[12]     packing[28]  194
    x[12]     packing[29]  170
    x[12]     packing[31]  139
    x[12]     packing[32]  126
    x[12]     packing[33]  40
    x[12]     packing[34]  113
    x[12]     packing[35]  173
    x[12]     packing[36]  193
    x[12]     packing[37]  60
    x[12]     packing[38]  161
    x[12]     packing[39]  84
    x[12]     packing[40]  46
    x[12]     packing[41]  60
    x[12]     packing[43]  57
    x[12]     packing[44]  75
    x[12]     packing[45]  13
    x[12]     packing[46]  79
    x[12]     packing[47]  59
    x[12]     packing[48]  161
    x[12]     packing[49]  28
    x[12]     R53       1
    x[13]     OBJ       35
    x[13]     packing[0]  4
    x[13]     packing[1]  83
    x[13]     packing[2]  131
    x[13]     packing[3]  30
    x[13]     packing[4]  49
    x[13]     packing[6]  29
    x[13]     packing[7]  176
    x[13]     packing[8]  118
    x[13]     packing[10]  101
    x[13]     packing[11]  182
    x[13]     packing[13]  155
    x[13]     packing[15]  175
    x[13]     packing[16]  30
    x[13]     packing[17]  11
    x[13]     packing[19]  147
    x[13]     packing[20]  143
    x[13]     packing[21]  58
    x[13]     packing[22]  87
    x[13]     packing[24]  4
    x[13]     packing[25]  74
    x[13]     packing[26]  88
    x[13]     packing[27]  145
    x[13]     packing[28]  52
    x[13]     packing[29]  27
    x[13]     packing[30]  36
    x[13]     packing[31]  118
    x[13]     packing[32]  47
    x[13]     packing[33]  61
    x[13]     packing[34]  82
    x[13]     packing[36]  28
    x[13]     packing[37]  25
    x[13]     packing[38]  95
    x[13]     packing[40]  115
    x[13]     packing[41]  50
    x[13]     packing[42]  113
    x[13]     packing[43]  52
    x[13]     packing[44]  9
    x[13]     packing[45]  13
    x[13]     packing[46]  131
    x[13]     packing[47]  54
    x[13]     packing[48]  41
    x[13]     R54       1
    x[14]     OBJ       22
    x[14]     packing[0]  117
    x[14]     packing[3]  135
    x[14]     packing[4]  130
    x[14]     packing[5]  1
    x[14]     packing[6]  98
    x[14]     packing[7]  185
    x[14]     packing[9]  133
    x[14]     packing[10]  49
    x[14]     packing[11]  61
    x[14]     packing[12]  18
    x[14]     packing[13]  155
    x[14]     packing[14]  155
    x[14]     packing[15]  24
    x[14]     packing[16]  152
    x[14]     packing[18]  3
    x[14]     packing[19]  79
    x[14]     packing[20]  152
    x[14]     packing[21]  167
    x[14]     packing[23]  160
    x[14]     packing[24]  47
    x[14]     packing[27]  131
    x[14]     packing[28]  182
    x[14]     packing[29]  196
    x[14]     packing[31]  49
    x[14]     packing[32]  154
    x[14]     packing[33]  139
    x[14]     packing[34]  38
    x[14]     packing[35]  46
    x[14]     packing[36]  178
    x[14]     packing[37]  41
    x[14]     packing[38]  38
    x[14]     packing[39]  142
    x[14]     packing[40]  80
    x[14]     packing[41]  150
    x[14]     packing[43]  186
    x[14]     packing[44]  62
    x[14]     packing[45]  83
    x[14]     packing[46]  197
    x[14]     packing[47]  154
    x[14]     packing[48]  12
    x[15]     OBJ       186
    x[15]     packing[0]  132
    x[15]     packing[1]  23
    x[15]     packing[2]  48
    x[15]     packing[3]  91
    x[15]     packing[4]  117
    x[15]     packing[5]  164
    x[15]     packing[6]  53
    x[15]     packing[8]  88
    x[15]     packing[9]  62
    x[15]     packing[10]  115
    x[15]     packing[11]  86
    x[15]     packing[12]  159
    x[15]     packing[13]  55
    x[15]     packing[15]  69
    x[15]     packing[16]  17
    x[15]     packing[17]  100
    x[15]     packing[18]  52
    x[15]     packing[19]  169
    x[15]     packing[20]  86
    x[15]     packing[21]  104
    x[15]     packing[22]  78
    x[15]     packing[23]  122
    x[15]     packing[27]  140
    x[15]     packing[28]  180
    x[15]     packing[30]  175
    x[15]     packing[31]  91
    x[15]     packing[33]  55
    x[15]     packing[34]  65
    x[15]     packing[35]  132
    x[15]     packing[36]  138
    x[15]     packing[38]  174
    x[15]     packing[40]  186
    x[15]     packing[41]  45
    x[15]     packing[42]  108
    x[15]     packing[43]  1
    x[15]     packing[44]  61
    x[15]     packing[46]  94
    x[15]     packing[47]  154
    x[15]     packing[48]  130
    x[15]     R53       1
    x[16]     OBJ       111
    x[16]     packing[1]  102
    x[16]     packing[3]  169
    x[16]     packing[4]  81
    x[16]     packing[5]  177
    x[16]     packing[6]  182
    x[16]     packing[7]  107
    x[16]     packing[8]  37
    x[16]     packing[9]  188
    x[16]     packing[10]  121
    x[16]     packing[11]  159
    x[16]     packing[12]  174
    x[16]     packing[14]  9
    x[16]     packing[17]  79
    x[16]     packing[19]  91
    x[16]     packing[20]  47
    x[16]     packing[22]  1
    x[16]     packing[23]  69
    x[16]     packing[24]  133
    x[16]     packing[25]  183
    x[16]     packing[28]  147
    x[16]     packing[29]  78
    x[16]     packing[31]  32
    x[16]     packing[32]  47
    x[16]     packing[33]  176
    x[16]     packing[34]  142
    x[16]     packing[39]  26
    x[16]     packing[40]  154
    x[16]     packing[41]  182
    x[16]     packing[44]  183
    x[16]     packing[45]  45
    x[16]     packing[46]  76
    x[16]     packing[47]  100
    x[16]     R53       1
    x[16]     R54       1
    x[16]     R55       1
    x[17]     OBJ       59
    x[17]     packing[0]  71
    x[17]     packing[1]  153
    x[17]     packing[4]  67
    x[17]     packing[5]  18
    x[17]     packing[9]  115
    x[17]     packing[10]  66
    x[17]     packing[14]  89
    x[17]     packing[16]  193
    x[17]     packing[17]  164
    x[17]     packing[18]  67
    x[17]     packing[19]  72
    x[17]     packing[21]  53
    x[17]     packing[24]  95
    x[17]     packing[25]  148
    x[17]     packing[26]  143
    x[17]     packing[28]  89
    x[17]     packing[30]  167
    x[17]     packing[31]  135
    x[17]     packing[32]  92
    x[17]     packing[33]  87
    x[17]     packing[34]  105
    x[17]     packing[35]  16
    x[17]     packing[36]  5
    x[17]     packing[37]  23
    x[17]     packing[38]  135
    x[17]     packing[39]  43
    x[17]     packing[41]  143
    x[17]     packing[42]  82
    x[17]     packing[43]  174
    x[17]     packing[44]  13
    x[17]     packing[46]  139
    x[17]     packing[47]  189
    x[17]     packing[49]  75
    x[18]     OBJ       98
    x[18]     packing[0]  104
    x[18]     packing[1]  174
    x[18]     packing[2]  99
    x[18]     packing[3]  79
    x[18]     packing[4]  149
    x[18]     packing[5]  171
    x[18]     packing[6]  140
    x[18]     packing[7]  147
    x[18]     packing[8]  142
    x[18]     packing[10]  86
    x[18]     packing[11]  183
    x[18]     packing[12]  133
    x[18]     packing[14]  118
    x[18]     packing[16]  161
    x[18]     packing[17]  178
    x[18]     packing[19]  90
    x[18]     packing[20]  94
    x[18]     packing[22]  114
    x[18]     packing[23]  74
    x[18]     packing[24]  45
    x[18]     packing[25]  122
    x[18]     packing[26]  85
    x[18]     packing[27]  120
    x[18]     packing[28]  165
    x[18]     packing[31]  146
    x[18]     packing[32]  71
    x[18]     packing[33]  126
    x[18]     packing[34]  42
    x[18]     packing[36]  65
    x[18]     packing[37]  21
    x[18]     packing[38]  85
    x[18]     packing[39]  99
    x[18]     packing[40]  88
    x[18]     packing[43]  143
    x[18]     packing[44]  124
    x[18]     packing[45]  91
    x[18]     packing[46]  86
    x[18]     packing[47]  12
    x[18]     packing[48]  95
    x[18]     packing[49]  128
    x[19]     OBJ       33
    x[19]     packing[1]  159
    x[19]     packing[4]  148
    x[19]     packing[5]  28
    x[19]     packing[6]  80
    x[19]     packing[9]  159
    x[19]     packing[10]  74
    x[19]     packing[11]  134
    x[19]     packing[13]  173
    x[19]     packing[14]  168
    x[19]     packing[15]  184
    x[19]     packing[16]  91
    x[19]     packing[17]  116
    x[19]     packing[18]  43
    x[19]     packing[20]  2
    x[19]     packing[21]  44
    x[19]     packing[22]  153
    x[19]     packing[23]  189
    x[19]     packing[24]  107
    x[19]     packing[26]  49
    x[19]     packing[27]  164
    x[19]     packing[28]  191
    x[19]     packing[29]  49
    x[19]     packing[31]  50
    x[19]     packing[32]  53
    x[19]     packing[34]  72
    x[19]     packing[36]  102
    x[19]     packing[39]  187
    x[19]     packing[40]  63
    x[19]     packing[41]  143
    x[19]     packing[42]  44
    x[19]     packing[44]  113
    x[19]     packing[45]  125
    x[19]     packing[48]  57
    x[19]     packing[49]  6
    x[20]     OBJ       115
    x[20]     packing[0]  46
    x[20]     packing[1]  52
    x[20]     packing[2]  39
    x[20]     packing[3]  78
    x[20]     packing[4]  101
    x[20]     packing[5]  148
    x[20]     packing[6]  48
    x[20]     packing[8]  26
    x[20]     packing[10]  85
    x[20]     packing[11]  180
    x[20]     packing[12]  152
    x[20]     packing[13]  37
    x[20]     packing[14]  117
    x[20]     packing[15]  31
    x[20]     packing[17]  188
    x[20]     packing[18]  15
    x[20]     packing[20]  80
    x[20]     packing[22]  31
    x[20]     packing[23]  177
    x[20]     packing[24]  164
    x[20]     packing[25]  90
    x[20]     packing[26]  35
    x[20]     packing[27]  98
    x[20]     packing[28]  32
    x[20]     packing[29]  68
    x[20]     packing[30]  9
    x[20]     packing[31]  19
    x[20]     packing[33]  129
    x[20]     packing[34]  40
    x[20]     packing[35]  119
    x[20]     packing[36]  192
    x[20]     packing[37]  136
    x[20]     packing[38]  35
    x[20]     packing[39]  42
    x[20]     packing[41]  66
    x[20]     packing[42]  65
    x[20]     packing[43]  62
    x[20]     packing[44]  68
    x[20]     packing[45]  83
    x[20]     packing[46]  19
    x[20]     packing[47]  171
    x[20]     packing[49]  75
    MARKER    'MARKER'                 'INTEND'
RHS
    RHS1      packing[0]  615
    RHS1      packing[1]  849
    RHS1      packing[2]  695
    RHS1      packing[3]  755
    RHS1      packing[4]  738
    RHS1      packing[5]  666
    RHS1      packing[6]  908
    RHS1      packing[7]  843
    RHS1      packing[8]  704
    RHS1      packing[9]  723
    RHS1      packing[10]  839
    RHS1      packing[11]  1030
    RHS1      packing[12]  842
    RHS1      packing[13]  656
    RHS1      packing[14]  840
    RHS1      packing[15]  626
    RHS1      packing[16]  889
    RHS1      packing[17]  857
    RHS1      packing[18]  710
    RHS1      packing[19]  553
    RHS1      packing[20]  688
    RHS1      packing[21]  722
    RHS1      packing[22]  654
    RHS1      packing[23]  832
    RHS1      packing[24]  700
    RHS1      packing[25]  814
    RHS1      packing[26]  588
    RHS1      packing[27]  775
    RHS1      packing[28]  1055
    RHS1      packing[29]  736
    RHS1      packing[30]  764
    RHS1      packing[31]  924
    RHS1      packing[32]  813
    RHS1      packing[33]  854
    RHS1      packing[34]  590
    RHS1      packing[35]  709
    RHS1      packing[36]  1075
    RHS1      packing[37]  628
    RHS1      packing[38]  630
    RHS1      packing[39]  579
    RHS1      packing[40]  806
    RHS1      packing[41]  641
    RHS1      packing[42]  744
    RHS1      packing[43]  879
    RHS1      packing[44]  747
    RHS1      packing[45]  641
    RHS1      packing[46]  740
    RHS1      packing[47]  880
    RHS1      packing[48]  608
    RHS1      packing[49]  508
    RHS1      R53       4
    RHS1      R54       5
    RHS1      R55       4
BOUNDS
 BV BND1      x[1]    
 BV BND1      x[2]    
 BV BND1      x[3]    
 BV BND1      x[4]    
 BV BND1      x[5]    
 BV BND1      x[6]    
 BV BND1      x[7]    
 BV BND1      x[8]    
 BV BND1      x[9]    
 BV BND1      x[10]   
 BV BND1      x[11]   
 BV BND1      x[12]   
 BV BND1      x[13]   
 BV BND1      x[14]   
 BV BND1      x[15]   
 BV BND1      x[16]   
 BV BND1      x[17]   
 BV BND1      x[18]   
 BV BND1      x[19]   
 BV BND1      x[20]   
ENDATA
